c File: flat50_3_0.col
c
c SOURCE: Joseph Culberson (joe@cs.ualberta.ca)
c DESCRIPTION: Quasi-random coloring problem
c              generated with flatness = 0
c                             probability = 0.139
c                             known coloring = 3
c                             random seed = 1241
c              Creation Date:  Tue Jun  9 12:04:33 1998
c Maximum degree = 8 Minimum degree = 1
c p edge 50 115
c cnf created by edge2cnf
p cnf 150 545
-1 -2 0
-1 -3 0
-2 -3 0
1 2 3 0
-4 -5 0
-4 -6 0
-5 -6 0
4 5 6 0
-7 -8 0
-7 -9 0
-8 -9 0
7 8 9 0
-10 -11 0
-10 -12 0
-11 -12 0
10 11 12 0
-13 -14 0
-13 -15 0
-14 -15 0
13 14 15 0
-16 -17 0
-16 -18 0
-17 -18 0
16 17 18 0
-19 -20 0
-19 -21 0
-20 -21 0
19 20 21 0
-22 -23 0
-22 -24 0
-23 -24 0
22 23 24 0
-25 -26 0
-25 -27 0
-26 -27 0
25 26 27 0
-28 -29 0
-28 -30 0
-29 -30 0
28 29 30 0
-31 -32 0
-31 -33 0
-32 -33 0
31 32 33 0
-34 -35 0
-34 -36 0
-35 -36 0
34 35 36 0
-37 -38 0
-37 -39 0
-38 -39 0
37 38 39 0
-40 -41 0
-40 -42 0
-41 -42 0
40 41 42 0
-43 -44 0
-43 -45 0
-44 -45 0
43 44 45 0
-46 -47 0
-46 -48 0
-47 -48 0
46 47 48 0
-49 -50 0
-49 -51 0
-50 -51 0
49 50 51 0
-52 -53 0
-52 -54 0
-53 -54 0
52 53 54 0
-55 -56 0
-55 -57 0
-56 -57 0
55 56 57 0
-58 -59 0
-58 -60 0
-59 -60 0
58 59 60 0
-61 -62 0
-61 -63 0
-62 -63 0
61 62 63 0
-64 -65 0
-64 -66 0
-65 -66 0
64 65 66 0
-67 -68 0
-67 -69 0
-68 -69 0
67 68 69 0
-70 -71 0
-70 -72 0
-71 -72 0
70 71 72 0
-73 -74 0
-73 -75 0
-74 -75 0
73 74 75 0
-76 -77 0
-76 -78 0
-77 -78 0
76 77 78 0
-79 -80 0
-79 -81 0
-80 -81 0
79 80 81 0
-82 -83 0
-82 -84 0
-83 -84 0
82 83 84 0
-85 -86 0
-85 -87 0
-86 -87 0
85 86 87 0
-88 -89 0
-88 -90 0
-89 -90 0
88 89 90 0
-91 -92 0
-91 -93 0
-92 -93 0
91 92 93 0
-94 -95 0
-94 -96 0
-95 -96 0
94 95 96 0
-97 -98 0
-97 -99 0
-98 -99 0
97 98 99 0
-100 -101 0
-100 -102 0
-101 -102 0
100 101 102 0
-103 -104 0
-103 -105 0
-104 -105 0
103 104 105 0
-106 -107 0
-106 -108 0
-107 -108 0
106 107 108 0
-109 -110 0
-109 -111 0
-110 -111 0
109 110 111 0
-112 -113 0
-112 -114 0
-113 -114 0
112 113 114 0
-115 -116 0
-115 -117 0
-116 -117 0
115 116 117 0
-118 -119 0
-118 -120 0
-119 -120 0
118 119 120 0
-121 -122 0
-121 -123 0
-122 -123 0
121 122 123 0
-124 -125 0
-124 -126 0
-125 -126 0
124 125 126 0
-127 -128 0
-127 -129 0
-128 -129 0
127 128 129 0
-130 -131 0
-130 -132 0
-131 -132 0
130 131 132 0
-133 -134 0
-133 -135 0
-134 -135 0
133 134 135 0
-136 -137 0
-136 -138 0
-137 -138 0
136 137 138 0
-139 -140 0
-139 -141 0
-140 -141 0
139 140 141 0
-142 -143 0
-142 -144 0
-143 -144 0
142 143 144 0
-145 -146 0
-145 -147 0
-146 -147 0
145 146 147 0
-148 -149 0
-148 -150 0
-149 -150 0
148 149 150 0
-52 -1 0
-53 -2 0
-54 -3 0
-73 -1 0
-74 -2 0
-75 -3 0
-100 -1 0
-101 -2 0
-102 -3 0
-103 -1 0
-104 -2 0
-105 -3 0
-130 -1 0
-131 -2 0
-132 -3 0
-139 -1 0
-140 -2 0
-141 -3 0
-85 -4 0
-86 -5 0
-87 -6 0
-148 -4 0
-149 -5 0
-150 -6 0
-79 -7 0
-80 -8 0
-81 -9 0
-91 -7 0
-92 -8 0
-93 -9 0
-103 -7 0
-104 -8 0
-105 -9 0
-121 -7 0
-122 -8 0
-123 -9 0
-127 -7 0
-128 -8 0
-129 -9 0
-142 -7 0
-143 -8 0
-144 -9 0
-67 -10 0
-68 -11 0
-69 -12 0
-79 -10 0
-80 -11 0
-81 -12 0
-85 -10 0
-86 -11 0
-87 -12 0
-97 -10 0
-98 -11 0
-99 -12 0
-106 -10 0
-107 -11 0
-108 -12 0
-124 -10 0
-125 -11 0
-126 -12 0
-133 -10 0
-134 -11 0
-135 -12 0
-82 -13 0
-83 -14 0
-84 -15 0
-88 -13 0
-89 -14 0
-90 -15 0
-124 -13 0
-125 -14 0
-126 -15 0
-70 -16 0
-71 -17 0
-72 -18 0
-91 -16 0
-92 -17 0
-93 -18 0
-103 -16 0
-104 -17 0
-105 -18 0
-124 -16 0
-125 -17 0
-126 -18 0
-136 -16 0
-137 -17 0
-138 -18 0
-64 -19 0
-65 -20 0
-66 -21 0
-85 -19 0
-86 -20 0
-87 -21 0
-94 -19 0
-95 -20 0
-96 -21 0
-109 -19 0
-110 -20 0
-111 -21 0
-148 -19 0
-149 -20 0
-150 -21 0
-82 -22 0
-83 -23 0
-84 -24 0
-139 -22 0
-140 -23 0
-141 -24 0
-61 -25 0
-62 -26 0
-63 -27 0
-88 -25 0
-89 -26 0
-90 -27 0
-97 -25 0
-98 -26 0
-99 -27 0
-139 -25 0
-140 -26 0
-141 -27 0
-145 -25 0
-146 -26 0
-147 -27 0
-73 -28 0
-74 -29 0
-75 -30 0
-112 -28 0
-113 -29 0
-114 -30 0
-118 -28 0
-119 -29 0
-120 -30 0
-127 -28 0
-128 -29 0
-129 -30 0
-136 -28 0
-137 -29 0
-138 -30 0
-79 -31 0
-80 -32 0
-81 -33 0
-136 -31 0
-137 -32 0
-138 -33 0
-82 -34 0
-83 -35 0
-84 -36 0
-88 -34 0
-89 -35 0
-90 -36 0
-91 -34 0
-92 -35 0
-93 -36 0
-115 -34 0
-116 -35 0
-117 -36 0
-133 -34 0
-134 -35 0
-135 -36 0
-145 -34 0
-146 -35 0
-147 -36 0
-100 -37 0
-101 -38 0
-102 -39 0
-127 -37 0
-128 -38 0
-129 -39 0
-70 -40 0
-71 -41 0
-72 -42 0
-73 -40 0
-74 -41 0
-75 -42 0
-121 -40 0
-122 -41 0
-123 -42 0
-124 -40 0
-125 -41 0
-126 -42 0
-145 -40 0
-146 -41 0
-147 -42 0
-64 -43 0
-65 -44 0
-66 -45 0
-70 -43 0
-71 -44 0
-72 -45 0
-79 -43 0
-80 -44 0
-81 -45 0
-91 -43 0
-92 -44 0
-93 -45 0
-127 -43 0
-128 -44 0
-129 -45 0
-139 -43 0
-140 -44 0
-141 -45 0
-142 -43 0
-143 -44 0
-144 -45 0
-64 -46 0
-65 -47 0
-66 -48 0
-73 -46 0
-74 -47 0
-75 -48 0
-97 -46 0
-98 -47 0
-99 -48 0
-100 -46 0
-101 -47 0
-102 -48 0
-103 -46 0
-104 -47 0
-105 -48 0
-67 -49 0
-68 -50 0
-69 -51 0
-88 -49 0
-89 -50 0
-90 -51 0
-100 -49 0
-101 -50 0
-102 -51 0
-145 -49 0
-146 -50 0
-147 -51 0
-109 -55 0
-110 -56 0
-111 -57 0
-127 -55 0
-128 -56 0
-129 -57 0
-142 -55 0
-143 -56 0
-144 -57 0
-145 -55 0
-146 -56 0
-147 -57 0
-145 -58 0
-146 -59 0
-147 -60 0
-103 -61 0
-104 -62 0
-105 -63 0
-136 -61 0
-137 -62 0
-138 -63 0
-139 -61 0
-140 -62 0
-141 -63 0
-106 -64 0
-107 -65 0
-108 -66 0
-124 -64 0
-125 -65 0
-126 -66 0
-142 -64 0
-143 -65 0
-144 -66 0
-148 -64 0
-149 -65 0
-150 -66 0
-109 -67 0
-110 -68 0
-111 -69 0
-121 -67 0
-122 -68 0
-123 -69 0
-124 -70 0
-125 -71 0
-126 -72 0
-127 -73 0
-128 -74 0
-129 -75 0
-106 -76 0
-107 -77 0
-108 -78 0
-112 -76 0
-113 -77 0
-114 -78 0
-121 -79 0
-122 -80 0
-123 -81 0
-124 -79 0
-125 -80 0
-126 -81 0
-127 -79 0
-128 -80 0
-129 -81 0
-142 -82 0
-143 -83 0
-144 -84 0
-130 -85 0
-131 -86 0
-132 -87 0
-103 -88 0
-104 -89 0
-105 -90 0
-106 -88 0
-107 -89 0
-108 -90 0
-115 -88 0
-116 -89 0
-117 -90 0
-106 -91 0
-107 -92 0
-108 -93 0
-127 -91 0
-128 -92 0
-129 -93 0
-139 -91 0
-140 -92 0
-141 -93 0
-109 -94 0
-110 -95 0
-111 -96 0
-124 -94 0
-125 -95 0
-126 -96 0
-139 -94 0
-140 -95 0
-141 -96 0
-115 -97 0
-116 -98 0
-117 -99 0
-139 -97 0
-140 -98 0
-141 -99 0
-148 -97 0
-149 -98 0
-150 -99 0
-109 -100 0
-110 -101 0
-111 -102 0
-115 -100 0
-116 -101 0
-117 -102 0
-133 -100 0
-134 -101 0
-135 -102 0
